10J3M/DAT/10J3MULL-1.dat
10 3
16.9986 16.9986
33.6272 33.6272
27.4514 27.4514
46.7644 46.7644
36.043 36.043
35.7998 35.7998
0.2937 0.2937
29.0455 29.0455
27.0537 27.0537
37.094 37.094
96.7238