10J3M/SOL/10J3MULL-1.sol
solution status: optimal solution found
objective value:                     68.3842666666667
x#1#2                               0.266346919824029 	(obj:0)
x#1#3                               0.733653080175971 	(obj:0)
x#2#2                                               1 	(obj:0)
x#3#2                                               1 	(obj:0)
x#4#1                                               1 	(obj:0)
x#5#2                                               1 	(obj:0)
x#6#3                                               1 	(obj:0)
x#7#1                                               1 	(obj:0)
x#8#1                                               1 	(obj:0)
x#9#2                                               1 	(obj:0)
x#10#1                              0.734420902430543 	(obj:0)
x#10#2                              0.265579097569457 	(obj:0)
z                                    68.3842666666667 	(obj:1)
